problems/csplib-prob056/sonet-models/noch/O2/lingeling/model_8_1-s3ring11-solution000001.solution
language Essence 1.3

letting network be mset({}, {}, {1, 3, 7, 8, 13}, {2, 6, 10}, {3, 5, 7, 9, 10}, {4, 5, 10, 11, 12}, {5, 6, 8, 12, 13})
$ Here is a simple "visualisation" for the value above.
$ 
$ 
$  1  3  7  8 13
$  2  6 10
$  3  5  7  9 10
$  4  5 10 11 12
$  5  6  8 12 13

